
******************************************************************************
This program contains Ipopt, a library for large-scale nonlinear optimization.
 Ipopt is released as open source code under the Eclipse Public License (EPL).
         For more information visit https://github.com/coin-or/Ipopt
******************************************************************************

This is Ipopt version 3.14.19, running with linear solver MUMPS 5.8.1.

Number of nonzeros in equality constraint Jacobian...:     4389
Number of nonzeros in inequality constraint Jacobian.:        0
Number of nonzeros in Lagrangian Hessian.............:     1050

Total number of variables............................:     1287
                     variables with only lower bounds:        0
                variables with lower and upper bounds:      457
                     variables with only upper bounds:        0
Total number of equality constraints.................:     1274
Total number of inequality constraints...............:        0
        inequality constraints with only lower bounds:        0
   inequality constraints with lower and upper bounds:        0
        inequality constraints with only upper bounds:        0

iter    objective    inf_pr   inf_du lg(mu)  ||d||  lg(rg) alpha_du alpha_pr  ls
   0  9.8483175e+00 9.90e+01 1.90e-04  -1.0 0.00e+00    -  0.00e+00 0.00e+00   0
   1  9.8515244e+00 5.76e-03 1.96e+01  -1.0 9.84e+01    -  4.69e-02 1.00e+00h  1
   2  9.8521189e+00 4.89e-03 7.54e-02  -1.0 1.95e-01    -  9.35e-01 1.00e+00f  1
   3  9.8589536e+00 1.18e-01 6.18e-01  -1.0 2.51e+00    -  4.91e-01 1.00e+00f  1
   4  9.8782179e+00 1.43e+00 3.60e-01  -1.0 3.62e+00    -  9.94e-01 6.23e-01h  1
   5  9.8936096e+00 1.40e-01 9.80e-04  -1.0 5.19e-01    -  1.00e+00 1.00e+00h  1
   6  9.8899621e+00 8.86e-04 3.49e-01  -2.5 6.87e-02    -  8.20e-01 1.00e+00h  1
   7  9.8631929e+00 7.88e-01 8.78e-02  -2.5 9.93e-01    -  8.23e-01 1.00e+00h  1
   8  9.8611108e+00 1.93e-01 9.22e-05  -2.5 1.17e+00    -  1.00e+00 1.00e+00h  1
   9  9.8607819e+00 6.68e-03 1.25e-05  -2.5 3.02e-01    -  1.00e+00 1.00e+00h  1
iter    objective    inf_pr   inf_du lg(mu)  ||d||  lg(rg) alpha_du alpha_pr  ls
  10  9.8598272e+00 1.04e-01 1.14e-02  -3.8 7.33e-01    -  8.72e-01 1.00e+00h  1
  11  9.8511186e+00 4.12e-03 3.20e-03  -3.8 3.59e+00    -  6.39e-01 1.00e+00h  1
  12  9.8512000e+00 2.58e-04 5.33e-06  -3.8 9.35e-02    -  1.00e+00 1.00e+00h  1
  13  9.8487291e+00 2.08e-04 2.96e-04  -5.7 1.36e+00    -  7.10e-01 8.28e-01h  1
  14  9.8482109e+00 7.89e-05 1.12e-04  -5.7 3.77e-01    -  8.54e-01 6.68e-01h  1
  15  9.8481999e+00 6.41e-05 7.60e-03  -5.7 3.24e-02    -  1.00e+00 1.88e-01h  1
  16  9.8482093e+00 7.02e-06 6.18e-09  -5.7 6.95e-03    -  1.00e+00 1.00e+00f  1
  17  9.8482049e+00 9.17e-07 1.90e-04  -8.6 2.34e-03    -  1.00e+00 8.89e-01h  1
  18  9.8482049e+00 2.91e-09 2.52e-12  -8.6 1.40e-04    -  1.00e+00 1.00e+00h  1

Number of Iterations....: 18

                                   (scaled)                 (unscaled)
Objective...............:   9.8482049287873465e+00    9.8482049287873465e+00
Dual infeasibility......:   2.5201553083969985e-12    2.5201553083969985e-12
Constraint violation....:   2.9078996988118958e-09    2.9078996988118958e-09
Variable bound violation:   0.0000000000000000e+00    0.0000000000000000e+00
Complementarity.........:   2.5099255136927777e-09    2.5099255136927777e-09
Overall NLP error.......:   2.9078996988118958e-09    2.9078996988118958e-09


Number of objective function evaluations             = 19
Number of objective gradient evaluations             = 19
Number of equality constraint evaluations            = 19
Number of inequality constraint evaluations          = 0
Number of equality constraint Jacobian evaluations   = 19
Number of inequality constraint Jacobian evaluations = 0
Number of Lagrangian Hessian evaluations             = 18
Total seconds in IPOPT                               = 0.080

EXIT: Optimal Solution Found.
